0 69 
1 71 
2 71 
3 68 
4 67 
5 66 
6 65 
7 64 
8 64 
9 60 
10 63 
11 63 
12 57 
13 56 
14 53 
15 49 
16 50 
17 49 
18 46 
19 44 
20 41 
21 42 
22 41 
23 38 
24 35 
25 31 
26 26 
27 27 
28 26 
29 24 
30 23 
31 21 
32 21 
33 17 
34 14 
35 12 
36 13 
37 11 
38 12 
39 10 
40 8 
41 7 
42 6 
43 6 
44 5 
45 4 
46 4 
47 3 
48 2 
49 3 
50 2 
51 2 
52 1 
53 1 
54 1 
55 0 
56 0 

